<number of tasks>
20

<cycle time>
1000

<order strength>
0,232


<task times>
1 168
2 545
3 57
4 295
5 113
6 453
7 489
8 58
9 54
10 376
11 51
12 191
13 278
14 79
15 145
16 150
17 82
18 446
19 176
20 386

<precedence relations>
2,3
2,4
2,5
2,6
2,7
3,9
4,10
4,11
6,8
8,16
9,13
9,15
11,12
11,14
13,17
14,18
15,19
16,20

<end>
